TCS_Benchmarks/redos_fix/corpus2_output_distinct_4509_4508_0_0.txt
(\s*(typename\s+)?\w+\s*(=\s*.*|<(\s*\w+\s*,?)+>\s*)?,?)+
\w+